0 65 64
1 50 62
2 68 70
3 68 70
4 54 68
5 66 70
6 33 72
7 68 69
8 57 69
9 58 69
10 60 64
11 64 64
12 60 63
13 52 59
14 45 56
15 43 55
16 42 53
17 43 52
18 54 55
19 42 54
20 47 56
21 51 56
22 47 52
23 48 49
24 49 48
25 22 47
26 42 48
27 45 46
28 42 44
29 44 45
30 45 46
31 42 46
32 36 43
33 13 42
34 35 40
35 33 34
36 30 30
37 22 27
38 21 29
39 19 28
40 25 28
41 15 28
42 12 25
43 17 23
44 17 21
45 18 19
46 11 19
47 9 17
48 15 16
49 12 14
50 7 14
51 9 11
52 11 11
53 8 9
54 11 11
55 6 9
56 4 8
57 5 7
58 1 7
59 5 7
60 7 6
61 2 4
62 3 3
63 1 1
64 2 1
65 3 2
66 2 1
67 3 2
68 1 1
69 1 0
70 2 1
71 1 0
72 2 1
73 1 0
74 2 1
75 1 0
76 2 1
77 1 0
78 2 1
79 1 0
80 2 1
81 1 0
82 1 1

